18117
1 0 1 0 0 1 0 1 0 1 0 0 0 1 1 0 0 1 1 0 1 0 1 0 1 1 0 0 1 0 
20 25 13 2 20 5 2 9 14 17 22 20 28 20 17 14 14 17 5 0 2 0 5 17 5 20 2 24 5 24 5 25 13 25 20 20 24 24 0 14 0 14 24 28 24 14 0 13 25 28 5 14 14 5 13 20 17 25 0 14 0 5 20 0 0 25 9 0 5 9 20 20 5 17 24 20 9 20 14 24 20 7 13 17 17 17 17 7 20 5 2 24 17 0 17 5 2 2 25 18 28 17 17 25 2 25 17 0 14 28 14 14 2 0 25 25 24 24 24 24 5 28 25 13 18 0 5 9 0 25 0 0 24 5 28 14 7 5 20 17 0 28 20 14 20 25 25 5 2 5 
